p cnf 200 1110
-101 19 0
-101 -78 0
-101 42 0
-101 -90 0
-101 -46 0
-101 -12 0
-101 5 0
-101 95 0
-101 65 0
-101 -20 0
101 -19 78 -42 90 46 12 -5 -95 -65 20 0
-102 48 0
-102 -74 0
-102 -12 0
-102 65 0
-102 88 0
-102 46 0
-102 19 0
-102 -57 0
-102 87 0
-102 83 0
102 -48 74 12 -65 -88 -46 -19 57 -87 -83 0
-103 87 0
-103 -88 0
-103 30 0
-103 8 0
-103 -95 0
-103 -74 0
-103 -20 0
-103 -46 0
-103 -43 0
-103 -84 0
103 -87 88 -30 -8 95 74 20 46 43 84 0
-104 -45 0
-104 -1 0
-104 -51 0
-104 14 0
-104 16 0
-104 62 0
-104 5 0
-104 -93 0
-104 64 0
-104 -39 0
104 45 1 51 -14 -16 -62 -5 93 -64 39 0
-105 50 0
-105 35 0
-105 99 0
-105 -48 0
-105 28 0
-105 98 0
-105 -9 0
-105 -37 0
-105 83 0
-105 -4 0
105 -50 -35 -99 48 -28 -98 9 37 -83 4 0
-106 -94 0
-106 70 0
-106 75 0
-106 -77 0
-106 -55 0
-106 81 0
-106 91 0
-106 -50 0
-106 -93 0
-106 54 0
106 94 -70 -75 77 55 -81 -91 50 93 -54 0
-107 -93 0
-107 92 0
-107 89 0
-107 46 0
-107 67 0
-107 55 0
-107 -4 0
-107 -59 0
-107 58 0
-107 19 0
107 93 -92 -89 -46 -67 -55 4 59 -58 -19 0
-108 -15 0
-108 -5 0
-108 46 0
-108 93 0
-108 68 0
-108 -28 0
-108 16 0
-108 34 0
-108 7 0
-108 87 0
108 15 5 -46 -93 -68 28 -16 -34 -7 -87 0
-109 -30 0
-109 2 0
-109 38 0
-109 90 0
-109 -58 0
-109 70 0
-109 -49 0
-109 -96 0
-109 -15 0
-109 -47 0
109 30 -2 -38 -90 58 -70 49 96 15 47 0
-110 46 0
-110 -33 0
-110 -42 0
-110 -80 0
-110 -53 0
-110 -93 0
-110 -85 0
-110 -15 0
-110 -84 0
-110 26 0
110 -46 33 42 80 53 93 85 15 84 -26 0
101 102 103 104 105 106 107 108 109 110 0
-111 -40 0
-111 49 0
-111 -15 0
-111 41 0
-111 18 0
-111 86 0
-111 66 0
-111 -100 0
-111 -71 0
-111 -39 0
111 40 -49 15 -41 -18 -86 -66 100 71 39 0
-112 -62 0
-112 -15 0
-112 -8 0
-112 -88 0
-112 71 0
-112 92 0
-112 27 0
-112 -78 0
-112 -95 0
-112 45 0
112 62 15 8 88 -71 -92 -27 78 95 -45 0
-113 16 0
-113 69 0
-113 -47 0
-113 -11 0
-113 38 0
-113 50 0
-113 -79 0
-113 30 0
-113 89 0
-113 75 0
113 -16 -69 47 11 -38 -50 79 -30 -89 -75 0
-114 21 0
-114 35 0
-114 26 0
-114 30 0
-114 75 0
-114 49 0
-114 -80 0
-114 -13 0
-114 95 0
-114 43 0
114 -21 -35 -26 -30 -75 -49 80 13 -95 -43 0
-115 45 0
-115 88 0
-115 46 0
-115 -17 0
-115 87 0
-115 1 0
-115 2 0
-115 13 0
-115 23 0
-115 -78 0
115 -45 -88 -46 17 -87 -1 -2 -13 -23 78 0
-116 69 0
-116 -2 0
-116 57 0
-116 -78 0
-116 52 0
-116 88 0
-116 33 0
-116 -56 0
-116 13 0
-116 -45 0
116 -69 2 -57 78 -52 -88 -33 56 -13 45 0
-117 31 0
-117 38 0
-117 -52 0
-117 -47 0
-117 -68 0
-117 66 0
-117 -51 0
-117 -59 0
-117 54 0
-117 80 0
117 -31 -38 52 47 68 -66 51 59 -54 -80 0
-118 -18 0
-118 39 0
-118 -34 0
-118 58 0
-118 70 0
-118 8 0
-118 77 0
-118 -21 0
-118 73 0
-118 81 0
118 18 -39 34 -58 -70 -8 -77 21 -73 -81 0
-119 -43 0
-119 23 0
-119 84 0
-119 41 0
-119 26 0
-119 -19 0
-119 -47 0
-119 -56 0
-119 4 0
-119 -70 0
119 43 -23 -84 -41 -26 19 47 56 -4 70 0
-120 9 0
-120 54 0
-120 69 0
-120 -96 0
-120 80 0
-120 -41 0
-120 -56 0
-120 -91 0
-120 16 0
-120 67 0
120 -9 -54 -69 96 -80 41 56 91 -16 -67 0
111 112 113 114 115 116 117 118 119 120 0
-121 65 0
-121 39 0
-121 -61 0
-121 53 0
-121 27 0
-121 -58 0
-121 -99 0
-121 -9 0
-121 74 0
-121 -83 0
121 -65 -39 61 -53 -27 58 99 9 -74 83 0
-122 -62 0
-122 -8 0
-122 68 0
-122 -73 0
-122 -45 0
-122 -27 0
-122 -63 0
-122 85 0
-122 -7 0
-122 -52 0
122 62 8 -68 73 45 27 63 -85 7 52 0
-123 53 0
-123 -7 0
-123 -40 0
-123 71 0
-123 -16 0
-123 -49 0
-123 74 0
-123 -52 0
-123 -73 0
-123 62 0
123 -53 7 40 -71 16 49 -74 52 73 -62 0
-124 -72 0
-124 -6 0
-124 -69 0
-124 96 0
-124 58 0
-124 56 0
-124 -47 0
-124 -23 0
-124 82 0
-124 -44 0
124 72 6 69 -96 -58 -56 47 23 -82 44 0
-125 -91 0
-125 -71 0
-125 -72 0
-125 82 0
-125 10 0
-125 -64 0
-125 47 0
-125 -25 0
-125 67 0
-125 -89 0
125 91 71 72 -82 -10 64 -47 25 -67 89 0
-126 -93 0
-126 -42 0
-126 18 0
-126 -100 0
-126 -2 0
-126 63 0
-126 -28 0
-126 -59 0
-126 1 0
-126 -81 0
126 93 42 -18 100 2 -63 28 59 -1 81 0
-127 -29 0
-127 -10 0
-127 16 0
-127 13 0
-127 84 0
-127 -34 0
-127 -20 0
-127 -30 0
-127 -15 0
-127 75 0
127 29 10 -16 -13 -84 34 20 30 15 -75 0
-128 3 0
-128 -16 0
-128 -39 0
-128 -55 0
-128 64 0
-128 -47 0
-128 -59 0
-128 -52 0
-128 30 0
-128 -89 0
128 -3 16 39 55 -64 47 59 52 -30 89 0
-129 6 0
-129 1 0
-129 -28 0
-129 -23 0
-129 91 0
-129 57 0
-129 21 0
-129 97 0
-129 48 0
-129 -17 0
129 -6 -1 28 23 -91 -57 -21 -97 -48 17 0
-130 33 0
-130 -44 0
-130 -8 0
-130 -86 0
-130 94 0
-130 10 0
-130 -23 0
-130 40 0
-130 -80 0
-130 -62 0
130 -33 44 8 86 -94 -10 23 -40 80 62 0
121 122 123 124 125 126 127 128 129 130 0
-131 39 0
-131 -55 0
-131 -57 0
-131 9 0
-131 -68 0
-131 2 0
-131 20 0
-131 -73 0
-131 1 0
-131 -100 0
131 -39 55 57 -9 68 -2 -20 73 -1 100 0
-132 -76 0
-132 -87 0
-132 13 0
-132 -41 0
-132 21 0
-132 -27 0
-132 33 0
-132 -51 0
-132 37 0
-132 -29 0
132 76 87 -13 41 -21 27 -33 51 -37 29 0
-133 -67 0
-133 -44 0
-133 -92 0
-133 -87 0
-133 -70 0
-133 47 0
-133 80 0
-133 -65 0
-133 -31 0
-133 30 0
133 67 44 92 87 70 -47 -80 65 31 -30 0
-134 -73 0
-134 -100 0
-134 -68 0
-134 29 0
-134 22 0
-134 70 0
-134 -36 0
-134 25 0
-134 74 0
-134 80 0
134 73 100 68 -29 -22 -70 36 -25 -74 -80 0
-135 -68 0
-135 -29 0
-135 71 0
-135 8 0
-135 56 0
-135 36 0
-135 34 0
-135 62 0
-135 -20 0
-135 -77 0
135 68 29 -71 -8 -56 -36 -34 -62 20 77 0
-136 -61 0
-136 -95 0
-136 59 0
-136 9 0
-136 -27 0
-136 56 0
-136 50 0
-136 24 0
-136 26 0
-136 83 0
136 61 95 -59 -9 27 -56 -50 -24 -26 -83 0
-137 17 0
-137 15 0
-137 -67 0
-137 6 0
-137 28 0
-137 -95 0
-137 21 0
-137 -65 0
-137 75 0
-137 52 0
137 -17 -15 67 -6 -28 95 -21 65 -75 -52 0
-138 77 0
-138 -48 0
-138 -74 0
-138 -66 0
-138 16 0
-138 55 0
-138 50 0
-138 71 0
-138 25 0
-138 11 0
138 -77 48 74 66 -16 -55 -50 -71 -25 -11 0
-139 -57 0
-139 95 0
-139 90 0
-139 -67 0
-139 89 0
-139 62 0
-139 -19 0
-139 48 0
-139 58 0
-139 93 0
139 57 -95 -90 67 -89 -62 19 -48 -58 -93 0
-140 38 0
-140 27 0
-140 -26 0
-140 61 0
-140 -87 0
-140 62 0
-140 88 0
-140 -89 0
-140 80 0
-140 47 0
140 -38 -27 26 -61 87 -62 -88 89 -80 -47 0
131 132 133 134 135 136 137 138 139 140 0
-141 -92 0
-141 53 0
-141 51 0
-141 -34 0
-141 -22 0
-141 -62 0
-141 68 0
-141 13 0
-141 69 0
-141 -66 0
141 92 -53 -51 34 22 62 -68 -13 -69 66 0
-142 -59 0
-142 1 0
-142 -47 0
-142 7 0
-142 72 0
-142 9 0
-142 -17 0
-142 -48 0
-142 -64 0
-142 42 0
142 59 -1 47 -7 -72 -9 17 48 64 -42 0
-143 19 0
-143 -46 0
-143 12 0
-143 42 0
-143 66 0
-143 34 0
-143 -62 0
-143 30 0
-143 -8 0
-143 60 0
143 -19 46 -12 -42 -66 -34 62 -30 8 -60 0
-144 -78 0
-144 8 0
-144 -32 0
-144 -29 0
-144 90 0
-144 -97 0
-144 -46 0
-144 -37 0
-144 54 0
-144 63 0
144 78 -8 32 29 -90 97 46 37 -54 -63 0
-145 -62 0
-145 -25 0
-145 -69 0
-145 -63 0
-145 -74 0
-145 -78 0
-145 17 0
-145 -12 0
-145 71 0
-145 -68 0
145 62 25 69 63 74 78 -17 12 -71 68 0
-146 -50 0
-146 17 0
-146 35 0
-146 -12 0
-146 -63 0
-146 -3 0
-146 97 0
-146 -53 0
-146 98 0
-146 37 0
146 50 -17 -35 12 63 3 -97 53 -98 -37 0
-147 -31 0
-147 98 0
-147 -32 0
-147 73 0
-147 -18 0
-147 -69 0
-147 35 0
-147 -9 0
-147 -10 0
-147 81 0
147 31 -98 32 -73 18 69 -35 9 10 -81 0
-148 54 0
-148 31 0
-148 -11 0
-148 29 0
-148 -35 0
-148 3 0
-148 -20 0
-148 -18 0
-148 12 0
-148 76 0
148 -54 -31 11 -29 35 -3 20 18 -12 -76 0
-149 -67 0
-149 -68 0
-149 1 0
-149 23 0
-149 31 0
-149 17 0
-149 -19 0
-149 -78 0
-149 40 0
-149 4 0
149 67 68 -1 -23 -31 -17 19 78 -40 -4 0
-150 43 0
-150 -53 0
-150 25 0
-150 -27 0
-150 -55 0
-150 -4 0
-150 93 0
-150 61 0
-150 -32 0
-150 67 0
150 -43 53 -25 27 55 4 -93 -61 32 -67 0
141 142 143 144 145 146 147 148 149 150 0
-151 -12 0
-151 40 0
-151 -41 0
-151 -32 0
-151 -79 0
-151 -88 0
-151 -76 0
-151 50 0
-151 47 0
-151 -2 0
151 12 -40 41 32 79 88 76 -50 -47 2 0
-152 -29 0
-152 -53 0
-152 41 0
-152 35 0
-152 32 0
-152 12 0
-152 39 0
-152 23 0
-152 -15 0
-152 99 0
152 29 53 -41 -35 -32 -12 -39 -23 15 -99 0
-153 71 0
-153 91 0
-153 94 0
-153 93 0
-153 40 0
-153 -88 0
-153 19 0
-153 -78 0
-153 -23 0
-153 -49 0
153 -71 -91 -94 -93 -40 88 -19 78 23 49 0
-154 -34 0
-154 46 0
-154 26 0
-154 -12 0
-154 -13 0
-154 -27 0
-154 -80 0
-154 73 0
-154 93 0
-154 -51 0
154 34 -46 -26 12 13 27 80 -73 -93 51 0
-155 -2 0
-155 -73 0
-155 3 0
-155 -35 0
-155 -7 0
-155 15 0
-155 -4 0
-155 -24 0
-155 1 0
-155 -62 0
155 2 73 -3 35 7 -15 4 24 -1 62 0
-156 -92 0
-156 53 0
-156 9 0
-156 -29 0
-156 -22 0
-156 -51 0
-156 35 0
-156 5 0
-156 -65 0
-156 -31 0
156 92 -53 -9 29 22 51 -35 -5 65 31 0
-157 63 0
-157 -42 0
-157 -72 0
-157 67 0
-157 88 0
-157 -73 0
-157 95 0
-157 61 0
-157 -32 0
-157 79 0
157 -63 42 72 -67 -88 73 -95 -61 32 -79 0
-158 99 0
-158 37 0
-158 -25 0
-158 40 0
-158 -90 0
-158 63 0
-158 -69 0
-158 -92 0
-158 28 0
-158 -22 0
158 -99 -37 25 -40 90 -63 69 92 -28 22 0
-159 82 0
-159 -65 0
-159 -18 0
-159 -70 0
-159 15 0
-159 -22 0
-159 -30 0
-159 -79 0
-159 -93 0
-159 -98 0
159 -82 65 18 70 -15 22 30 79 93 98 0
-160 -73 0
-160 26 0
-160 50 0
-160 -38 0
-160 -91 0
-160 94 0
-160 -77 0
-160 -78 0
-160 -46 0
-160 89 0
160 73 -26 -50 38 91 -94 77 78 46 -89 0
151 152 153 154 155 156 157 158 159 160 0
-161 -34 0
-161 -52 0
-161 -80 0
-161 -33 0
-161 41 0
-161 -13 0
-161 -42 0
-161 -81 0
-161 53 0
-161 -63 0
161 34 52 80 33 -41 13 42 81 -53 63 0
-162 -93 0
-162 79 0
-162 39 0
-162 69 0
-162 -86 0
-162 -90 0
-162 -27 0
-162 30 0
-162 -98 0
-162 -95 0
162 93 -79 -39 -69 86 90 27 -30 98 95 0
-163 -85 0
-163 -15 0
-163 -79 0
-163 -8 0
-163 -88 0
-163 -81 0
-163 95 0
-163 -1 0
-163 -59 0
-163 -71 0
163 85 15 79 8 88 81 -95 1 59 71 0
-164 56 0
-164 62 0
-164 86 0
-164 16 0
-164 -79 0
-164 -90 0
-164 17 0
-164 34 0
-164 -35 0
-164 -36 0
164 -56 -62 -86 -16 79 90 -17 -34 35 36 0
-165 -45 0
-165 -12 0
-165 52 0
-165 -73 0
-165 96 0
-165 -77 0
-165 -88 0
-165 -92 0
-165 -28 0
-165 57 0
165 45 12 -52 73 -96 77 88 92 28 -57 0
-166 -55 0
-166 -13 0
-166 60 0
-166 -71 0
-166 92 0
-166 -30 0
-166 -98 0
-166 73 0
-166 89 0
-166 -32 0
166 55 13 -60 71 -92 30 98 -73 -89 32 0
-167 19 0
-167 37 0
-167 83 0
-167 10 0
-167 89 0
-167 23 0
-167 -79 0
-167 84 0
-167 -56 0
-167 -12 0
167 -19 -37 -83 -10 -89 -23 79 -84 56 12 0
-168 29 0
-168 89 0
-168 39 0
-168 -64 0
-168 68 0
-168 62 0
-168 60 0
-168 76 0
-168 47 0
-168 16 0
168 -29 -89 -39 64 -68 -62 -60 -76 -47 -16 0
-169 -29 0
-169 -92 0
-169 77 0
-169 53 0
-169 11 0
-169 54 0
-169 34 0
-169 -42 0
-169 2 0
-169 -89 0
169 29 92 -77 -53 -11 -54 -34 42 -2 89 0
-170 -72 0
-170 54 0
-170 -18 0
-170 -22 0
-170 -38 0
-170 -21 0
-170 -40 0
-170 -6 0
-170 36 0
-170 -81 0
170 72 -54 18 22 38 21 40 6 -36 81 0
161 162 163 164 165 166 167 168 169 170 0
-171 4 0
-171 -98 0
-171 -33 0
-171 60 0
-171 -14 0
-171 -84 0
-171 -6 0
-171 68 0
-171 85 0
-171 -48 0
171 -4 98 33 -60 14 84 6 -68 -85 48 0
-172 30 0
-172 24 0
-172 22 0
-172 -71 0
-172 -8 0
-172 100 0
-172 48 0
-172 -90 0
-172 60 0
-172 51 0
172 -30 -24 -22 71 8 -100 -48 90 -60 -51 0
-173 31 0
-173 -46 0
-173 20 0
-173 -29 0
-173 36 0
-173 -86 0
-173 -8 0
-173 82 0
-173 1 0
-173 -33 0
173 -31 46 -20 29 -36 86 8 -82 -1 33 0
-174 -91 0
-174 17 0
-174 -13 0
-174 -36 0
-174 39 0
-174 77 0
-174 74 0
-174 -43 0
-174 -41 0
-174 55 0
174 91 -17 13 36 -39 -77 -74 43 41 -55 0
-175 -81 0
-175 93 0
-175 -86 0
-175 -69 0
-175 61 0
-175 95 0
-175 54 0
-175 99 0
-175 -75 0
-175 -77 0
175 81 -93 86 69 -61 -95 -54 -99 75 77 0
-176 44 0
-176 38 0
-176 23 0
-176 -60 0
-176 20 0
-176 83 0
-176 -81 0
-176 -36 0
-176 -99 0
-176 -96 0
176 -44 -38 -23 60 -20 -83 81 36 99 96 0
-177 100 0
-177 -94 0
-177 -78 0
-177 31 0
-177 86 0
-177 43 0
-177 50 0
-177 -81 0
-177 69 0
-177 95 0
177 -100 94 78 -31 -86 -43 -50 81 -69 -95 0
-178 33 0
-178 44 0
-178 -35 0
-178 31 0
-178 63 0
-178 32 0
-178 83 0
-178 19 0
-178 -37 0
-178 69 0
178 -33 -44 35 -31 -63 -32 -83 -19 37 -69 0
-179 74 0
-179 -15 0
-179 78 0
-179 -67 0
-179 -46 0
-179 -34 0
-179 -96 0
-179 56 0
-179 25 0
-179 -33 0
179 -74 15 -78 67 46 34 96 -56 -25 33 0
-180 -75 0
-180 89 0
-180 -78 0
-180 28 0
-180 41 0
-180 60 0
-180 -94 0
-180 -70 0
-180 -66 0
-180 -79 0
180 75 -89 78 -28 -41 -60 94 70 66 79 0
171 172 173 174 175 176 177 178 179 180 0
-181 -25 0
-181 -34 0
-181 -7 0
-181 82 0
-181 64 0
-181 -87 0
-181 -59 0
-181 20 0
-181 -89 0
-181 -98 0
181 25 34 7 -82 -64 87 59 -20 89 98 0
-182 59 0
-182 52 0
-182 11 0
-182 -80 0
-182 -88 0
-182 6 0
-182 -96 0
-182 85 0
-182 72 0
-182 90 0
182 -59 -52 -11 80 88 -6 96 -85 -72 -90 0
-183 87 0
-183 -73 0
-183 -43 0
-183 28 0
-183 -92 0
-183 -35 0
-183 38 0
-183 -29 0
-183 11 0
-183 -76 0
183 -87 73 43 -28 92 35 -38 29 -11 76 0
-184 -44 0
-184 24 0
-184 56 0
-184 35 0
-184 -87 0
-184 94 0
-184 92 0
-184 32 0
-184 7 0
-184 -96 0
184 44 -24 -56 -35 87 -94 -92 -32 -7 96 0
-185 82 0
-185 16 0
-185 -30 0
-185 -20 0
-185 83 0
-185 -90 0
-185 17 0
-185 68 0
-185 18 0
-185 -5 0
185 -82 -16 30 20 -83 90 -17 -68 -18 5 0
-186 49 0
-186 25 0
-186 69 0
-186 7 0
-186 50 0
-186 13 0
-186 -33 0
-186 87 0
-186 91 0
-186 -5 0
186 -49 -25 -69 -7 -50 -13 33 -87 -91 5 0
-187 -17 0
-187 -83 0
-187 11 0
-187 -55 0
-187 78 0
-187 -89 0
-187 41 0
-187 44 0
-187 8 0
-187 -30 0
187 17 83 -11 55 -78 89 -41 -44 -8 30 0
-188 64 0
-188 -10 0
-188 -47 0
-188 -2 0
-188 -63 0
-188 -7 0
-188 -74 0
-188 -77 0
-188 46 0
-188 12 0
188 -64 10 47 2 63 7 74 77 -46 -12 0
-189 40 0
-189 -9 0
-189 23 0
-189 67 0
-189 89 0
-189 -25 0
-189 -33 0
-189 -12 0
-189 49 0
-189 -15 0
189 -40 9 -23 -67 -89 25 33 12 -49 15 0
-190 72 0
-190 -51 0
-190 -73 0
-190 -86 0
-190 -70 0
-190 28 0
-190 -32 0
-190 24 0
-190 -4 0
-190 45 0
190 -72 51 73 86 70 -28 32 -24 4 -45 0
181 182 183 184 185 186 187 188 189 190 0
-191 88 0
-191 80 0
-191 56 0
-191 89 0
-191 -53 0
-191 -35 0
-191 -42 0
-191 2 0
-191 9 0
-191 4 0
191 -88 -80 -56 -89 53 35 42 -2 -9 -4 0
-192 -82 0
-192 -73 0
-192 -91 0
-192 8 0
-192 -74 0
-192 -27 0
-192 48 0
-192 -68 0
-192 54 0
-192 -90 0
192 82 73 91 -8 74 27 -48 68 -54 90 0
-193 6 0
-193 -31 0
-193 -5 0
-193 -63 0
-193 -83 0
-193 -15 0
-193 93 0
-193 61 0
-193 90 0
-193 -72 0
193 -6 31 5 63 83 15 -93 -61 -90 72 0
-194 82 0
-194 56 0
-194 37 0
-194 91 0
-194 -59 0
-194 -71 0
-194 33 0
-194 -39 0
-194 7 0
-194 14 0
194 -82 -56 -37 -91 59 71 -33 39 -7 -14 0
-195 61 0
-195 79 0
-195 57 0
-195 -91 0
-195 23 0
-195 89 0
-195 -87 0
-195 -88 0
-195 16 0
-195 -68 0
195 -61 -79 -57 91 -23 -89 87 88 -16 68 0
-196 -42 0
-196 47 0
-196 31 0
-196 51 0
-196 28 0
-196 4 0
-196 -23 0
-196 -100 0
-196 -1 0
-196 -67 0
196 42 -47 -31 -51 -28 -4 23 100 1 67 0
-197 52 0
-197 -45 0
-197 38 0
-197 -27 0
-197 29 0
-197 41 0
-197 24 0
-197 63 0
-197 28 0
-197 19 0
197 -52 45 -38 27 -29 -41 -24 -63 -28 -19 0
-198 57 0
-198 -31 0
-198 -12 0
-198 -41 0
-198 25 0
-198 4 0
-198 -78 0
-198 87 0
-198 -38 0
-198 84 0
198 -57 31 12 41 -25 -4 78 -87 38 -84 0
-199 44 0
-199 77 0
-199 88 0
-199 54 0
-199 -20 0
-199 -40 0
-199 17 0
-199 79 0
-199 -73 0
-199 -60 0
199 -44 -77 -88 -54 20 40 -17 -79 73 60 0
-200 -61 0
-200 26 0
-200 64 0
-200 -66 0
-200 -83 0
-200 -67 0
-200 73 0
-200 -60 0
-200 50 0
-200 85 0
200 61 -26 -64 66 83 67 -73 60 -50 -85 0
191 192 193 194 195 196 197 198 199 200 0
